; (set-logic QF_NRA)
(set-option :precision 0.001)

(declare-fun A_0_0 () Real)
(declare-fun A_0_1 () Real)
(declare-fun d_0 () Real)
(declare-fun d_1 () Real)
(declare-fun err () Real)
(declare-fun fx_0 () Real)
(declare-fun fx_1 () Real)
(declare-fun norm_o () Real)
(declare-fun x_0 () Real)
(declare-fun x_1 () Real)


(assert (>= x_0 -100.000))
(assert (>= x_1 -100.000))
(assert (<= x_0 100.000))
(assert (<= x_1 100.000))
(assert (= A_0_0 (* -1.10000 x_0)))
(assert (= A_0_1 (* -1.10000 x_1)))
(assert (= fx_0 (* -1.10000000 x_0)))
(assert (= fx_1 (* -1.10000000 x_1)))
(assert (= d_0 (+ A_0_0 (* -1 fx_0))))
(assert (= d_1 (+ A_0_1 (* -1 fx_1))))
(assert (= norm_o (+ d_0 d_1)))
(assert (= err norm_o))
(assert (> err 0.00100000))

(check-sat)
; (get-model)
(exit)
